c FILE: i080-005

c SOURCE: From steinlib

c DESCRIPTION: Steinlib instance with 80 nodes and 120 edges.

p edge 80 120
e 1 10
e 1 15
e 1 59
e 2 56
e 2 59
e 3 14
e 3 36
e 3 42
e 3 54
e 3 60
e 3 68
e 4 70
e 5 7
e 5 41
e 5 48
e 5 53
e 5 75
e 6 7
e 6 24
e 6 46
e 6 64
e 7 13
e 7 59
e 8 24
e 8 28
e 9 12
e 9 68
e 9 74
e 10 72
e 10 74
e 11 71
e 11 75
e 12 59
e 12 67
e 12 76
e 13 43
e 13 55
e 13 57
e 14 18
e 14 23
e 14 24
e 14 29
e 14 42
e 15 16
e 15 30
e 15 79
e 16 21
e 16 23
e 16 78
e 17 28
e 17 44
e 17 71
e 18 44
e 19 59
e 19 68
e 20 31
e 20 45
e 20 73
e 22 74
e 23 30
e 25 64
e 25 70
e 26 29
e 26 49
e 27 37
e 27 47
e 28 41
e 28 50
e 28 66
e 29 33
e 29 62
e 29 71
e 30 39
e 30 44
e 30 47
e 30 70
e 31 41
e 32 48
e 32 63
e 33 34
e 33 61
e 34 54
e 34 70
e 35 45
e 35 71
e 35 74
e 38 45
e 39 48
e 39 66
e 39 75
e 40 42
e 41 42
e 41 48
e 41 55
e 41 65
e 42 59
e 43 52
e 44 67
e 45 72
e 47 69
e 47 72
e 48 72
e 49 61
e 51 66
e 51 77
e 52 72
e 52 78
e 52 80
e 53 54
e 53 79
e 56 76
e 57 80
e 58 69
e 61 78
e 65 68
e 69 80
e 70 74
e 75 76
e 75 77
e 76 80
